(set-info :origin "NTS benchmark converted to SMT-LIB2 using Eldarica (http://lara.epfl.ch/w/eldarica)")
(set-logic HORN)
(declare-fun p (Real Real) Bool)
(assert(forall((A Real)(B Real))(=>(and (and (= A 0.0) true) true) (p A B))))
(assert(forall((A Real)(B Real)(C Real)(D Real)(E Real)(F Real)(G Real)(H Real)(I Real)(J Real)(K Real)(L Real)(M Real)(N Real)(O Real)(P Real)(Q Real)(R Real)(S Real)(T Real)(U Real)(V Real)(W Real)(X Real)(Y Real)(Z Real)(A1 Real)(B1 Real)(C1 Real)(D1 Real)(E1 Real)(F1 Real)(G1 Real)(H1 Real)(I1 Real)(J1 Real)(K1 Real)(L1 Real)(M1 Real)(N1 Real)(O1 Real)(P1 Real)(Q1 Real)(R1 Real)(S1 Real)(T1 Real)(U1 Real)(V1 Real)(W1 Real)(X1 Real)(Y1 Real)(Z1 Real)(A2 Real)(B2 Real)(C2 Real)(D2 Real)(E2 Real)(F2 Real)(G2 Real)(H2 Real)(I2 Real)(J2 Real)(K2 Real)(L2 Real)(M2 Real)(N2 Real)(O2 Real)(P2 Real))(=>(and (or (or (or (or (and (and (and (and (= A 1.0) (= C 0.0)) true) true) (and (and (and (and (and (and (not (not (>= (+ D 0.0) 0.0))) (not (not (<= D 1.0)))) (not (not (>= (+ E 0.0) 0.0)))) (not (not (<= E 1.0)))) (not (= E 0.0))) (not (not (= D 0.0)))) (not (and (or (not (= E 0.0)) (not (= (+ F (- 3.0)) 0.0))) (or (= E 0.0) (= (+ F (- 3.0)) 0.0)))))) (and (and (and (and (= A 1.0) (= C 1.0)) true) true) (and (and (not (not (>= (+ E 0.0) 0.0))) (not (not (<= E 1.0)))) (not (not (= E 0.0)))))) (and (and (and (and (= A 2.0) (= C 0.0)) (= E B)) true) (and (and (and (and (and (and (and (and (and (and (and (and (and (and (and (and (and (and (and (and (and (and (and (and (and (and (and (and (and (and (and (and (and (and (and (and (and (and (and (and (and (and (and (and (and (and (and (and (and (and (and (and (and (and (and (and (and (and (and (and (and (and (and (and (and (and (and (and (and (and (and (and (and (and (and (and (and (and (and (and (and (and (and (and (and (and (and (and (and (and (and (and (and (and (and (and (and (and (and (and (and (and (and (and (and (and (and (and (and (and (and (and (and (and (and (and (and (and (and (and (and (and (and (and (and (and (and (and (and (and (and (and (and (and (and (and (and (and (and (and (and (and (and (and (and (and (and (and (and (and (and (and (and (and (and (and (and (not (not (>= (+ G 0.0) 0.0))) (not (not (<= G 1.0)))) (not (not (>= (+ H 0.0) 0.0)))) (not (not (<= H 1.0)))) (not (not (>= (+ I 0.0) 0.0)))) (not (not (<= I 1.0)))) (not (not (>= (+ J 0.0) 0.0)))) (not (not (<= J 1.0)))) (not (not (>= (+ K 0.0) 0.0)))) (not (not (<= K 1.0)))) (not (not (>= (+ L 0.0) 0.0)))) (not (not (<= L 1.0)))) (not (not (>= (+ M 0.0) 0.0)))) (not (not (<= M 1.0)))) (not (not (>= (+ N 0.0) 0.0)))) (not (not (<= N 1.0)))) (not (not (>= (+ O 0.0) 0.0)))) (not (not (<= O 1.0)))) (not (not (>= (+ P 0.0) 0.0)))) (not (not (<= P 1.0)))) (not (not (>= (+ Q 0.0) 0.0)))) (not (not (<= Q 1.0)))) (not (not (>= (+ R 0.0) 0.0)))) (not (not (<= R 1.0)))) (not (not (>= (+ S 0.0) 0.0)))) (not (not (<= S 1.0)))) (not (not (>= (+ T 0.0) 0.0)))) (not (not (<= T 1.0)))) (not (not (>= (+ U 0.0) 0.0)))) (not (not (<= U 1.0)))) (not (not (>= (+ V 0.0) 0.0)))) (not (not (<= V 1.0)))) (not (not (>= (+ W 0.0) 0.0)))) (not (not (<= W 1.0)))) (not (not (>= (+ X 0.0) 0.0)))) (not (not (<= X 1.0)))) (not (not (>= (+ Y 0.0) 0.0)))) (not (not (<= Y 1.0)))) (not (not (>= (+ Z 0.0) 0.0)))) (not (not (<= Z 1.0)))) (not (not (>= (+ A1 0.0) 0.0)))) (not (not (<= A1 1.0)))) (not (not (>= (+ B1 0.0) 0.0)))) (not (not (<= B1 1.0)))) (not (not (>= (+ C1 0.0) 0.0)))) (not (not (<= C1 1.0)))) (not (not (>= (+ D1 0.0) 0.0)))) (not (not (<= D1 1.0)))) (not (not (>= (+ E1 0.0) 0.0)))) (not (not (<= E1 1.0)))) (not (not (>= (+ F1 0.0) 0.0)))) (not (not (<= F1 1.0)))) (not (not (>= (+ G1 0.0) 0.0)))) (not (not (<= G1 1.0)))) (not (not (>= (+ H1 0.0) 0.0)))) (not (not (<= H1 1.0)))) (not (not (>= (+ I1 0.0) 0.0)))) (not (not (<= I1 1.0)))) (not (not (>= (+ J1 0.0) 0.0)))) (not (not (<= J1 1.0)))) (not (not (>= (+ K1 0.0) 0.0)))) (not (not (<= K1 1.0)))) (not (not (>= (+ L1 0.0) 0.0)))) (not (not (<= L1 1.0)))) (not (not (>= (+ M1 0.0) 0.0)))) (not (not (<= M1 1.0)))) (not (not (>= (+ N1 0.0) 0.0)))) (not (not (<= N1 1.0)))) (not (not (>= (+ O1 0.0) 0.0)))) (not (not (<= O1 1.0)))) (not (not (>= (+ P1 0.0) 0.0)))) (not (not (<= P1 1.0)))) (not (not (>= (+ Q1 0.0) 0.0)))) (not (not (<= Q1 1.0)))) (not (not (>= (+ R1 0.0) 0.0)))) (not (not (<= R1 1.0)))) (not (not (>= (+ S1 0.0) 0.0)))) (not (not (<= S1 1.0)))) (not (not (>= (+ T1 0.0) 0.0)))) (not (not (<= T1 1.0)))) (not (not (>= (+ U1 0.0) 0.0)))) (not (not (<= U1 1.0)))) (not (not (>= (+ V1 0.0) 0.0)))) (not (not (<= V1 1.0)))) (not (not (>= (+ W1 0.0) 0.0)))) (not (not (<= W1 1.0)))) (not (not (>= (+ X1 0.0) 0.0)))) (not (not (<= X1 1.0)))) (not (not (>= (+ Y1 0.0) 0.0)))) (not (not (<= Y1 1.0)))) (not (not (>= (+ Z1 0.0) 0.0)))) (not (not (<= Z1 1.0)))) (not (not (>= (+ A2 0.0) 0.0)))) (not (not (<= A2 1.0)))) (not (not (>= (+ B2 0.0) 0.0)))) (not (not (<= B2 1.0)))) (not (not (>= (+ C2 0.0) 0.0)))) (not (not (<= C2 1.0)))) (not (not (>= (+ D2 0.0) 0.0)))) (not (not (<= D2 1.0)))) (not (not (>= (+ E2 0.0) 0.0)))) (not (not (<= E2 1.0)))) (not (not (>= (+ F2 0.0) 0.0)))) (not (not (<= F2 1.0)))) (not (not (>= (+ F 0.0) 0.0)))) (not (not (<= F 1.0)))) (not (not (>= (+ G2 0.0) 0.0)))) (not (not (<= G2 1.0)))) (not (and (or (not (= G2 0.0)) (not (= (+ H2 (- 1.0)) 0.0))) (or (= G2 0.0) (not (= H2 I2)))))) (not (and (or (not (= G2 0.0)) (not (= (+ I2 (- 6.0)) 0.0))) (or (= G2 0.0) (= (+ I2 (- 6.0)) 0.0))))) (not (and (or (not (= Y1 0.0)) (not (= (+ I2 (- 6.0)) 0.0))) (or (= Y1 0.0) (not (= (+ I2 (- 1.0)) 0.0)))))) (not (and (or (not (= V1 0.0)) (not (= (+ J2 0.0) 0.0))) (or (= V1 0.0) (= (+ J2 0.0) 0.0))))) (not (and (or (not (= S1 0.0)) (not (= (+ K2 0.0) 0.0))) (or (= S1 0.0) (= (+ K2 0.0) 0.0))))) (not (and (or (not (= P1 0.0)) (not (= (+ L2 0.0) 0.0))) (or (= P1 0.0) (= (+ L2 0.0) 0.0))))) (not (and (or (not (= M1 0.0)) (not (= (+ M2 (- 1.0)) 0.0))) (or (= M1 0.0) (= (+ M2 (- 1.0)) 0.0))))) (not (and (or (not (= F1 0.0)) (not (= (+ E (- 23.0)) 0.0))) (or (= F1 0.0) (= (+ E (- 23.0)) 0.0))))) (not (and (or (not (= C1 0.0)) (not (= (+ E (- 2.0)) 0.0))) (or (= C1 0.0) (= (+ E (- 2.0)) 0.0))))) (not (and (or (not (= Z 0.0)) (not (= (+ N2 0.0) 0.0))) (or (= Z 0.0) (= (+ N2 0.0) 0.0))))) (not (and (or (not (= U 0.0)) (>= (+ E (- 23.0)) 0.0)) (or (= U 0.0) (not (>= (+ E (- 23.0)) 0.0)))))) (not (and (or (not (= R 0.0)) (not (= (+ E 0.0) 0.0))) (or (= R 0.0) (= (+ E 0.0) 0.0))))) (not (and (or (not (= M 0.0)) (>= (+ E (- 2.0)) 0.0)) (or (= M 0.0) (not (>= (+ E (- 2.0)) 0.0)))))) (not (and (or (not (= H 0.0)) (not (= (+ O2 (- 3.0)) 0.0))) (or (= H 0.0) (= (+ O2 (- 3.0)) 0.0))))) (not (and (and (and (and (and (and (not (= T1 0.0)) (or (not (= G1 0.0)) (not (= V1 0.0)))) (not (= N1 0.0))) (or (not (= A1 0.0)) (not (= P1 0.0)))) (not (= Q1 0.0))) (or (not (= D1 0.0)) (not (= S1 0.0)))) (or (not (= D2 0.0)) (not (= F 0.0)))))) (not (and (and (= D2 0.0) (or (not (= E2 0.0)) (= F2 0.0))) (or (not (= F2 0.0)) (= E2 0.0))))) (not (and (and (= D2 0.0) (or (or (or (not (= B2 0.0)) (not (= E2 0.0))) (not (>= H2 D))) (not (>= D H2)))) (or (or (or (or (not (= W1 0.0)) (not (= F2 0.0))) (= Y1 0.0)) (not (>= I2 D))) (not (>= D I2)))))) (not (and (= B2 0.0) (not (= C2 0.0))))) (not (and (= B2 0.0) (or (or (not (= W1 0.0)) (not (= C2 0.0))) (not (= Y1 0.0)))))) (not (and (and (and (= W1 0.0) (or (or (not (= X1 0.0)) (= Z1 0.0)) (= A2 0.0))) (or (or (not (= Z1 0.0)) (= X1 0.0)) (= A2 0.0))) (or (or (not (= A2 0.0)) (= X1 0.0)) (= Z1 0.0))))) (not (and (and (and (= W1 0.0) (or (or (not (= K1 0.0)) (not (= X1 0.0))) (not (= Y1 0.0)))) (or (or (or (not (= X 0.0)) (not (= Z1 0.0))) (not (= M1 0.0))) (= Y1 0.0))) (or (or (or (not (= P 0.0)) (not (= A2 0.0))) (not (= Z 0.0))) (= Y1 0.0))))) (not (and (= T1 0.0) (not (= U1 0.0))))) (not (and (= T1 0.0) (or (or (not (= G1 0.0)) (not (= U1 0.0))) (= V1 0.0))))) (not (and (= Q1 0.0) (not (= R1 0.0))))) (not (and (= Q1 0.0) (or (or (not (= D1 0.0)) (not (= R1 0.0))) (= S1 0.0))))) (not (and (= N1 0.0) (not (= O1 0.0))))) (not (and (= N1 0.0) (or (or (not (= A1 0.0)) (not (= O1 0.0))) (= P1 0.0))))) (not (and (= K1 0.0) (not (= L1 0.0))))) (not (and (= K1 0.0) (or (or (not (= X 0.0)) (not (= L1 0.0))) (= M1 0.0))))) (not (and (and (and (= G1 0.0) (or (or (not (= H1 0.0)) (= I1 0.0)) (= J1 0.0))) (or (or (not (= I1 0.0)) (= H1 0.0)) (= J1 0.0))) (or (or (not (= J1 0.0)) (= H1 0.0)) (= I1 0.0))))) (not (and (and (and (= G1 0.0) (or (or (not (= K 0.0)) (not (= H1 0.0))) (= R 0.0))) (or (or (not (= S 0.0)) (not (= I1 0.0))) (= C1 0.0))) (or (or (not (= V 0.0)) (not (= J1 0.0))) (= F1 0.0))))) (not (and (= D1 0.0) (not (= E1 0.0))))) (not (and (= D1 0.0) (or (or (not (= V 0.0)) (not (= E1 0.0))) (not (= F1 0.0)))))) (not (and (= A1 0.0) (not (= B1 0.0))))) (not (and (= A1 0.0) (or (or (not (= S 0.0)) (not (= B1 0.0))) (not (= C1 0.0)))))) (not (and (= X 0.0) (not (= Y 0.0))))) (not (and (= X 0.0) (or (or (not (= P 0.0)) (not (= Y 0.0))) (= Z 0.0))))) (not (and (= V 0.0) (not (= W 0.0))))) (not (and (= V 0.0) (or (or (not (= N 0.0)) (not (= W 0.0))) (= U 0.0))))) (not (and (= S 0.0) (not (= T 0.0))))) (not (and (= S 0.0) (or (or (not (= N 0.0)) (not (= T 0.0))) (not (= U 0.0)))))) (not (and (= P 0.0) (not (= Q 0.0))))) (not (and (= P 0.0) (or (or (not (= K 0.0)) (not (= Q 0.0))) (not (= R 0.0)))))) (not (and (= N 0.0) (not (= O 0.0))))) (not (and (= N 0.0) (or (or (not (= I 0.0)) (not (= O 0.0))) (= M 0.0))))) (not (and (= K 0.0) (not (= L 0.0))))) (not (and (= K 0.0) (or (or (not (= I 0.0)) (not (= L 0.0))) (not (= M 0.0)))))) (not (and (= I 0.0) (not (= J 0.0))))) (not (and (= I 0.0) (or (or (not (= G 0.0)) (not (= J 0.0))) (not (= H 0.0)))))) (not (and (or (not (= F 0.0)) (not (= (+ D (- 1.0)) 0.0))) (or (= F 0.0) (= (+ D (- 1.0)) 0.0))))))) (and (and (and (and (= A 2.0) (= C 2.0)) (= E B)) (= E P2)) (and (and (not (not (>= (+ F 0.0) 0.0))) (not (not (<= F 1.0)))) (not (not (= F 0.0)))))) (and (and (and (and (= A 3.0) (= C 0.0)) true) true) (and (and (and (and (and (and (and (and (and (and (and (and (and (and (and (and (and (and (and (and (and (and (and (and (and (and (and (and (and (and (and (and (and (and (and (and (and (and (and (and (and (and (and (and (and (and (and (and (and (and (and (and (and (and (and (and (and (and (and (and (and (and (and (and (and (and (and (and (and (and (and (and (and (and (and (and (and (and (and (and (and (and (not (not (>= (+ I 0.0) 0.0))) (not (not (<= I 1.0)))) (not (not (>= (+ J 0.0) 0.0)))) (not (not (<= J 1.0)))) (not (not (>= (+ D 0.0) 0.0)))) (not (not (<= D 1.0)))) (not (not (>= (+ G 0.0) 0.0)))) (not (not (<= G 1.0)))) (not (not (>= (+ H 0.0) 0.0)))) (not (not (<= H 1.0)))) (not (not (>= (+ K 0.0) 0.0)))) (not (not (<= K 1.0)))) (not (not (>= (+ L 0.0) 0.0)))) (not (not (<= L 1.0)))) (not (not (>= (+ M 0.0) 0.0)))) (not (not (<= M 1.0)))) (not (not (>= (+ N 0.0) 0.0)))) (not (not (<= N 1.0)))) (not (not (>= (+ O 0.0) 0.0)))) (not (not (<= O 1.0)))) (not (not (>= (+ P 0.0) 0.0)))) (not (not (<= P 1.0)))) (not (not (>= (+ Q 0.0) 0.0)))) (not (not (<= Q 1.0)))) (not (not (>= (+ R 0.0) 0.0)))) (not (not (<= R 1.0)))) (not (not (>= (+ S 0.0) 0.0)))) (not (not (<= S 1.0)))) (not (not (>= (+ T 0.0) 0.0)))) (not (not (<= T 1.0)))) (not (not (>= (+ U 0.0) 0.0)))) (not (not (<= U 1.0)))) (not (not (>= (+ V 0.0) 0.0)))) (not (not (<= V 1.0)))) (not (not (>= (+ W 0.0) 0.0)))) (not (not (<= W 1.0)))) (not (not (>= (+ X 0.0) 0.0)))) (not (not (<= X 1.0)))) (not (not (>= (+ Y 0.0) 0.0)))) (not (not (<= Y 1.0)))) (not (not (>= (+ Z 0.0) 0.0)))) (not (not (<= Z 1.0)))) (not (not (>= (+ A1 0.0) 0.0)))) (not (not (<= A1 1.0)))) (not (not (>= (+ B1 0.0) 0.0)))) (not (not (<= B1 1.0)))) (not (not (>= (+ C1 0.0) 0.0)))) (not (not (<= C1 1.0)))) (not (not (>= (+ D1 0.0) 0.0)))) (not (not (<= D1 1.0)))) (not (not (>= (+ F1 0.0) 0.0)))) (not (not (<= F1 1.0)))) (not (not (>= (+ E 0.0) 0.0)))) (not (not (<= E 1.0)))) (not (not (>= (+ L1 0.0) 0.0)))) (not (not (<= L1 1.0)))) (not (and (or (not (= L1 0.0)) (not (= (+ E1 (- 1.0)) 0.0))) (or (= L1 0.0) (not (= E1 G1)))))) (not (and (or (not (= L1 0.0)) (not (= (+ G1 (- 6.0)) 0.0))) (or (= L1 0.0) (= (+ G1 (- 6.0)) 0.0))))) (not (and (or (not (= X 0.0)) (not (= (+ G1 (- 6.0)) 0.0))) (or (= X 0.0) (not (= (+ G1 (- 1.0)) 0.0)))))) (not (and (or (not (= U 0.0)) (not (= (+ K1 (- 1.0)) 0.0))) (or (= U 0.0) (= (+ K1 (- 1.0)) 0.0))))) (not (and (or (not (= R 0.0)) (not (= (+ J1 0.0) 0.0))) (or (= R 0.0) (= (+ J1 0.0) 0.0))))) (not (and (or (not (= O 0.0)) (not (= (+ I1 0.0) 0.0))) (or (= O 0.0) (= (+ I1 0.0) 0.0))))) (not (and (or (not (= L 0.0)) (>= (+ I1 (- 2.0)) 0.0)) (or (= L 0.0) (not (>= (+ I1 (- 2.0)) 0.0)))))) (not (and (or (not (= J 0.0)) (not (= (+ H1 (- 3.0)) 0.0))) (or (= J 0.0) (= (+ H1 (- 3.0)) 0.0))))) (not (= E 0.0))) (not (not (= C1 0.0)))) (not (and (and (= C1 0.0) (or (not (= D1 0.0)) (= F1 0.0))) (or (not (= F1 0.0)) (= D1 0.0))))) (not (and (and (= C1 0.0) (or (or (or (not (= A1 0.0)) (not (= D1 0.0))) (not (>= E1 F))) (not (>= F E1)))) (or (or (or (or (not (= V 0.0)) (not (= F1 0.0))) (= X 0.0)) (not (>= G1 F))) (not (>= F G1)))))) (not (and (= A1 0.0) (not (= B1 0.0))))) (not (and (= A1 0.0) (or (or (not (= V 0.0)) (not (= B1 0.0))) (not (= X 0.0)))))) (not (and (and (and (= V 0.0) (or (or (not (= W 0.0)) (= Y 0.0)) (= Z 0.0))) (or (or (not (= Y 0.0)) (= W 0.0)) (= Z 0.0))) (or (or (not (= Z 0.0)) (= W 0.0)) (= Y 0.0))))) (not (and (and (and (= V 0.0) (or (or (not (= S 0.0)) (not (= W 0.0))) (not (= X 0.0)))) (or (or (or (not (= P 0.0)) (not (= Y 0.0))) (not (= U 0.0))) (= X 0.0))) (or (or (or (not (= M 0.0)) (not (= Z 0.0))) (not (= R 0.0))) (= X 0.0))))) (not (and (= S 0.0) (not (= T 0.0))))) (not (and (= S 0.0) (or (or (not (= P 0.0)) (not (= T 0.0))) (= U 0.0))))) (not (and (= P 0.0) (not (= Q 0.0))))) (not (and (= P 0.0) (or (or (not (= M 0.0)) (not (= Q 0.0))) (= R 0.0))))) (not (and (= M 0.0) (not (= N 0.0))))) (not (and (= M 0.0) (or (or (not (= H 0.0)) (not (= N 0.0))) (not (= O 0.0)))))) (not (and (= H 0.0) (not (= K 0.0))))) (not (and (= H 0.0) (or (or (not (= D 0.0)) (not (= K 0.0))) (not (= L 0.0)))))) (not (and (= D 0.0) (not (= G 0.0))))) (not (and (= D 0.0) (or (or (not (= I 0.0)) (not (= G 0.0))) (not (= J 0.0)))))) (not (and (or (not (= E 0.0)) (not (= (+ F (- 1.0)) 0.0))) (or (= E 0.0) (= (+ F (- 1.0)) 0.0))))))) (p C P2)) (p A B))))
(assert(not (exists((A Real)(B Real))(and (and (and (= A 3.0) true) true) (p A B)))))
(check-sat)
